n=214;
k_min=7;
k_max=7;
M=[| 161, 144, 146, 126, 140, 133, 146
 | 164, 141, 152, 126, 140, 128, 146
 | 166, 142, 152, 125, 139, 128, 145
 | 164, 144, 149, 126, 139, 130, 145
 | 164, 144, 151, 125, 138, 130, 145
 | 162, 145, 150, 127, 138, 131, 144
 | 164, 144, 151, 125, 137, 130, 145
 | 163, 145, 151, 125, 136, 131, 145
 | 163, 142, 148, 126, 140, 130, 147
 | 164, 145, 150, 125, 137, 131, 145
 | 162, 145, 150, 126, 137, 131, 144
 | 165, 146, 149, 125, 136, 132, 144
 | 163, 145, 151, 126, 137, 131, 144
 | 164, 146, 150, 125, 136, 132, 144
 | 164, 147, 149, 125, 135, 132, 144
 | 164, 146, 150, 125, 136, 132, 144
 | 164, 147, 148, 124, 135, 133, 144
 | 162, 144, 145, 126, 139, 133, 148
 | 163, 145, 148, 124, 138, 132, 148
 | 164, 145, 149, 125, 138, 131, 145
 | 164, 146, 148, 125, 137, 132, 145
 | 162, 143, 148, 125, 137, 132, 149
 | 165, 147, 148, 124, 136, 133, 144
 | 165, 146, 149, 124, 135, 132, 144
 | 165, 144, 150, 124, 136, 131, 146
 | 164, 146, 149, 125, 136, 132, 145
 | 165, 145, 149, 125, 137, 131, 145
 | 164, 146, 150, 124, 136, 132, 145
 | 164, 147, 149, 125, 135, 132, 144
 | 165, 145, 149, 124, 136, 131, 145
 | 165, 147, 148, 124, 135, 133, 144
 | 164, 146, 150, 124, 135, 132, 145
 | 164, 146, 149, 124, 136, 132, 145
 | 163, 147, 150, 125, 135, 133, 144
 | 165, 147, 148, 124, 135, 133, 144
 | 166, 145, 149, 124, 136, 131, 146
 | 163, 144, 146, 125, 139, 131, 148
 | 166, 147, 148, 124, 135, 132, 144
 | 166, 145, 145, 123, 135, 134, 148
 | 166, 145, 145, 123, 135, 134, 148
 | 165, 147, 148, 124, 134, 133, 145
 | 165, 147, 149, 124, 134, 133, 145
 | 166, 145, 149, 124, 136, 131, 146
 | 163, 147, 144, 124, 135, 136, 148
 | 164, 147, 148, 124, 135, 133, 145
 | 166, 145, 145, 124, 137, 132, 147
 | 164, 146, 148, 124, 135, 132, 146
 | 164, 146, 144, 123, 135, 136, 149
 | 166, 149, 143, 122, 133, 137, 147
 | 165, 145, 146, 124, 137, 132, 147
 | 163, 148, 143, 123, 134, 137, 148
 | 163, 148, 146, 124, 135, 134, 147
 | 162, 147, 150, 123, 133, 133, 149
 | 162, 148, 149, 123, 133, 134, 148
 | 162, 148, 150, 122, 133, 134, 148
 | 159, 150, 150, 123, 131, 136, 146
 | 163, 145, 150, 125, 136, 132, 145
 | 165, 146, 149, 125, 136, 131, 145
 | 163, 143, 151, 126, 138, 130, 145
 | 164, 144, 150, 125, 138, 130, 145
 | 166, 145, 149, 122, 136, 131, 147
 | 161, 144, 146, 125, 141, 132, 147
 | 163, 147, 144, 124, 136, 135, 147
 | 163, 145, 144, 124, 137, 135, 148
 | 163, 148, 145, 123, 135, 135, 147
 | 162, 147, 146, 123, 136, 134, 148
 | 164, 150, 144, 122, 133, 137, 147
 | 164, 150, 144, 122, 133, 137, 147
 | 164, 150, 144, 122, 133, 137, 147
 | 165, 150, 143, 121, 132, 138, 147
 | 158, 139, 150, 129, 145, 128, 147
 | 166, 143, 147, 126, 140, 130, 145
 | 163, 143, 151, 127, 139, 130, 144
 | 164, 143, 151, 126, 139, 129, 145
 | 163, 144, 151, 127, 139, 130, 144
 | 163, 144, 151, 126, 138, 130, 144
 | 164, 142, 149, 126, 140, 129, 145
 | 164, 144, 150, 126, 139, 130, 144
 | 163, 142, 152, 125, 139, 129, 146
 | 162, 144, 149, 127, 140, 130, 144
 | 162, 144, 149, 128, 141, 130, 144
 | 164, 143, 152, 126, 138, 129, 145
 | 164, 143, 150, 126, 138, 130, 145
 | 164, 144, 150, 126, 138, 130, 144
 | 158, 138, 151, 132, 146, 127, 145
 | 164, 144, 150, 125, 138, 130, 145
 | 165, 143, 152, 124, 137, 130, 145
 | 166, 143, 150, 125, 139, 129, 145
 | 164, 144, 150, 126, 138, 130, 144
 | 162, 145, 150, 127, 138, 132, 143
 | 162, 147, 146, 125, 137, 134, 145
 | 164, 145, 150, 124, 137, 131, 145
 | 164, 145, 152, 123, 136, 131, 146
 | 166, 144, 152, 123, 136, 130, 145
 | 163, 146, 151, 125, 136, 131, 144
 | 164, 145, 148, 125, 138, 131, 146
 | 162, 148, 146, 125, 136, 134, 146
 | 161, 150, 149, 125, 133, 135, 144
 | 162, 147, 150, 125, 135, 133, 145
 | 163, 147, 149, 123, 134, 133, 147
 | 162, 148, 150, 123, 133, 134, 146
 | 160, 151, 146, 124, 133, 137, 146
 | 158, 151, 150, 122, 130, 138, 147
 | 166, 148, 139, 123, 131, 142, 147
 | 160, 149, 142, 122, 132, 141, 150
 | 146, 153, 141, 125, 123, 166, 142
 | 146, 148, 141, 133, 135, 152, 142
 | 148, 148, 140, 131, 131, 154, 144
 | 148, 166, 147, 117, 120, 144, 154
 | 148, 156, 150, 122, 124, 145, 152
 | 146, 152, 142, 128, 127, 158, 144
 | 146, 152, 142, 128, 128, 158, 144
 | 148, 152, 142, 126, 126, 157, 145
 | 164, 143, 149, 126, 139, 130, 145
 | 163, 145, 148, 126, 139, 132, 144
 | 163, 144, 148, 126, 140, 131, 145
 | 163, 144, 148, 126, 140, 131, 145
 | 162, 141, 148, 128, 143, 129, 145
 | 165, 143, 149, 126, 140, 129, 145
 | 164, 142, 150, 126, 140, 129, 145
 | 163, 145, 148, 126, 139, 131, 145
 | 163, 144, 150, 126, 138, 130, 144
 | 164, 144, 150, 125, 138, 130, 145
 | 165, 142, 150, 126, 140, 129, 145
 | 165, 145, 149, 125, 137, 131, 145
 | 163, 146, 148, 125, 138, 132, 145
 | 164, 146, 148, 125, 136, 132, 145
 | 166, 147, 145, 120, 130, 135, 153
 | 162, 148, 147, 120, 131, 135, 152
 | 158, 153, 147, 118, 126, 140, 156
 | 154, 157, 146, 117, 122, 145, 154
 | 149, 154, 142, 124, 125, 154, 148
 | 163, 143, 149, 127, 140, 130, 145
 | 164, 142, 147, 127, 142, 130, 145
 | 163, 144, 150, 126, 139, 130, 145
 | 163, 145, 147, 126, 139, 132, 145
 | 163, 145, 150, 125, 137, 132, 144
 | 163, 145, 150, 126, 138, 131, 144
 | 162, 144, 151, 127, 138, 131, 144
 | 163, 144, 151, 126, 138, 130, 144
 | 165, 143, 149, 126, 139, 129, 145
 | 164, 145, 149, 125, 137, 131, 145
 | 163, 145, 150, 126, 137, 131, 144
 | 163, 144, 149, 126, 139, 130, 145
 | 163, 147, 149, 123, 134, 133, 146
 | 163, 147, 147, 125, 137, 133, 145
 | 165, 144, 150, 123, 136, 131, 147
 | 165, 144, 150, 125, 138, 130, 146
 | 165, 145, 149, 125, 137, 131, 145
 | 163, 148, 147, 126, 136, 134, 143
 | 163, 145, 148, 126, 139, 131, 145
 | 164, 145, 144, 124, 137, 134, 148
 | 163, 146, 150, 123, 135, 133, 147
 | 165, 144, 150, 125, 137, 130, 146
 | 164, 147, 147, 125, 136, 133, 145
 | 164, 146, 150, 124, 135, 132, 146
 | 165, 145, 149, 124, 136, 131, 147
 | 165, 146, 145, 123, 135, 135, 148
 | 166, 144, 146, 124, 138, 131, 147
 | 165, 145, 146, 124, 138, 131, 147
 | 164, 146, 146, 124, 137, 133, 147
 | 164, 146, 149, 123, 135, 132, 148
 | 162, 144, 145, 126, 139, 133, 148
 | 146, 134, 143, 141, 166, 128, 140
 | 160, 154, 147, 119, 126, 140, 149
 | 152, 166, 142, 119, 123, 150, 144
 | 150, 162, 142, 123, 125, 152, 143
 | 150, 154, 149, 121, 122, 152, 149
 | 152, 150, 153, 124, 124, 144, 149
 | 150, 157, 149, 119, 120, 149, 151
 | 148, 158, 145, 120, 122, 153, 150
 | 141, 136, 139, 166, 144, 133, 138
 | 141, 136, 139, 165, 144, 134, 138
 | 148, 158, 145, 121, 122, 154, 149
 | 166, 149, 147, 120, 129, 137, 148
 | 151, 156, 149, 119, 121, 149, 151
 | 162, 147, 148, 120, 132, 135, 154
 | 160, 149, 148, 119, 130, 136, 153
 | 159, 146, 149, 120, 133, 132, 156
 | 160, 147, 150, 120, 132, 134, 155
 | 153, 141, 166, 125, 134, 129, 149
 | 152, 153, 152, 115, 125, 133, 166
 | 149, 158, 153, 116, 121, 142, 156
 | 148, 161, 149, 119, 122, 143, 154
 | 146, 144, 153, 134, 138, 133, 148
 | 153, 137, 149, 138, 150, 127, 141
 | 151, 136, 146, 138, 157, 127, 142
 | 163, 146, 148, 124, 136, 132, 147
 | 154, 145, 144, 129, 139, 135, 151
 | 150, 143, 149, 129, 145, 131, 150
 | 154, 145, 154, 122, 135, 132, 153
 | 148, 147, 161, 123, 131, 132, 155
 | 149, 146, 166, 121, 128, 133, 153
 | 147, 145, 166, 123, 134, 130, 152
 | 147, 145, 164, 123, 134, 131, 152
 | 149, 147, 165, 121, 129, 133, 153
 | 151, 148, 161, 120, 128, 135, 153
 | 148, 148, 162, 121, 130, 132, 155
 | 149, 147, 163, 121, 130, 133, 155
 | 148, 147, 160, 123, 132, 131, 156
 | 147, 146, 160, 125, 134, 131, 154
 | 148, 146, 148, 137, 132, 141, 144
 | 147, 146, 160, 125, 133, 132, 153
 | 146, 144, 164, 124, 135, 130, 151
 | 147, 147, 160, 123, 132, 131, 155
 | 146, 146, 164, 123, 134, 130, 153
 | 147, 146, 164, 122, 133, 131, 154
 | 144, 139, 153, 138, 146, 131, 145
 | 150, 148, 161, 120, 128, 134, 156
 | 150, 146, 159, 122, 132, 134, 153
 | 146, 145, 165, 124, 135, 130, 152
 | 147, 145, 163, 124, 134, 132, 151
 | 147, 146, 162, 124, 134, 132, 151
 | 148, 145, 162, 123, 134, 132, 151 |];
 P=[1, 1, 1, 1, 1, 1, 1, 1, 1, 1, 1, 1, 1, 1, 1, 1, 1, 1, 1, 1, 1, 1, 1, 1, 1, 1, 1, 1, 1, 1, 1, 1, 1, 1, 1, 1, 1, 1, 1, 1, 1, 1, 1, 1, 1, 1, 1, 1, 1, 1, 1, 1, 1, 1, 1, 1, 1, 1, 1, 1, 1, 1, 1, 1, 1, 1, 1, 1, 1, 1, 1, 1, 1, 1, 1, 1, 1, 1, 1, 1, 1, 1, 1, 1, 1, 1, 1, 1, 1, 1, 1, 1, 1, 1, 1, 1, 1, 1, 1, 1, 1, 1, 1, 1, 1, 6, 6, 6, 2, 2, 6, 6, 6, 1, 1, 1, 1, 1, 1, 1, 1, 1, 1, 1, 1, 1, 1, 1, 1, 1, 2, 6, 1, 1, 1, 1, 1, 1, 1, 1, 1, 1, 1, 1, 1, 1, 1, 1, 1, 1, 1, 1, 1, 1, 1, 1, 1, 1, 1, 1, 1, 1, 1, 5, 1, 2, 2, 2, 2, 2, 2, 4, 4, 2, 1, 2, 1, 1, 1, 1, 3, 7, 2, 2, 3, 5, 5, 1, 1, 1, 7, 3, 3, 3, 3, 3, 3, 3, 3, 3, 3, 2, 3, 3, 3, 3, 3, 3, 3, 3, 3, 3, 3, 3 ];